Solving original (integer) problem with strategy gdp.hull_exact...
--- Job model.gms Start 02/14/26 20:03:31 52.2.0 d8e408be LEX-LEG x86 64bit/Linux
--- Applying:
    /package/gams/52.2/gmsprmun.txt
--- GAMS Parameters defined
    Input /local/scratch/a/sgusev/repos/k_means/data/gams_gurobi_gdp.hull_exact/no_mode/2026-02-14_20-03-31/original/model.gms
    Output /local/scratch/a/sgusev/repos/k_means/data/gams_gurobi_gdp.hull_exact/no_mode/2026-02-14_20-03-31/original/output.lst
    ScrDir /local/scratch/a/sgusev/repos/k_means/data/gams_gurobi_gdp.hull_exact/no_mode/2026-02-14_20-03-31/original/225a/
    SysDir /package/gams/52.2/
    CurDir /local/scratch/a/sgusev/repos/k_means/data/gams_gurobi_gdp.hull_exact/no_mode/2026-02-14_20-03-31/original/
    LogOption 3
    AppendLog 1
Licensee: David Bernal / SECQUOIA Research Group         G251008+0003Ac-GEN
          Purdue University, Davidson School of Chemical EngineeringDCE4838
          225a/gamslice.dat
          5a82958a-fbca-4a23
          node:66820903 mem:995 cores:48 ipport:47767 v:2                  
          Evaluation license: Not for commercial or production use
          The time-limited license stops working on : Jun 30, 2027
System information: 48 physical cores and 995 Gb physical memory detected
GAMS 52.2.0   Copyright (C) 1987-2025 GAMS Development. All rights reserved
--- Starting compilation
--- model.gms(3991) 2 Mb
--- $echo File /local/scratch/a/sgusev/repos/k_means/data/gams_gurobi_gdp.hull_exact/no_mode/2026-02-14_20-03-31/original/gurobi.opt
--- model.gms(5831) 2 Mb
--- Starting execution: elapsed 0:00:00.021
--- model.gms(4000) 3 Mb
--- Generating MINLP model GAMS_MODEL
--- model.gms(4004) 6 Mb
---   1,214 rows  560 columns  2,933 non-zeroes
---   1,848 nl-code  308 nl-non-zeroes
---   44 discrete-columns
--- Range statistics (absolute non-zero finite values)
--- RHS       [min, max] : [ 1.000E+00, 1.000E+00] - Zero values observed as well
--- Bound     [min, max] : [ 1.000E+00, 1.100E+02] - Zero values observed as well
--- Matrix    [min, max] : [ 1.000E+00, 1.100E+02] - Zero values observed as well
--- model.gms(4004) 4 Mb
--- Executing GUROBI (Solvelink=5): elapsed 0:00:00.027
Reading parameter(s) from "/local/scratch/a/sgusev/repos/k_means/data/gams_gurobi_gdp.hull_exact/no_mode/2026-02-14_20-03-31/original/gurobi.opt"
>>  NonConvex 2
>>  Threads 1
>>  MIPGap 1e-06
>>  MIPGapAbs 1e-10
>>  FeasibilityTol 1e-06
>>  OptimalityTol 1e-06
>>  IntFeasTol 1e-05
Finished reading from "/local/scratch/a/sgusev/repos/k_means/data/gams_gurobi_gdp.hull_exact/no_mode/2026-02-14_20-03-31/original/gurobi.opt"

... GRB_LICENSE_FILE = /local/scratch/a/sgusev/gurobi.lic

    Gurobi           52.2.0 d8e408be Dec 8, 2025           LEG x86 64bit/Linux    

... GAMS/Gurobi Link license.
... GMO Q Extraction (ThreePass): 0.00s

    Gurobi Optimizer version 13.0.0 build v13.0.0rc1 (linux64 - "Oracle Linux Server 9.7")
    
    CPU model: AMD EPYC 7643 48-Core Processor, instruction set [SSE2|AVX|AVX2]
    Thread count: 48 physical cores, 96 logical processors, using up to 1 threads
    
    Non-default parameters:
    TimeLimit  300
    MIPGap  1e-06
    LogToConsole  0
    NonConvex  2
    Threads  1
    
    Optimize a model with 1169 rows, 559 columns and 2613 nonzeros (Min)
    Model fingerprint: 0x297139d3
    Model has 11 linear objective coefficients
    Model has 44 quadratic constraints
    Variable types: 515 continuous, 44 integer (0 binary)
    Coefficient statistics:
      Matrix range     [1e+00, 1e+02]
      QMatrix range    [2e-02, 2e+00]
      Objective range  [1e+00, 1e+00]
      Bounds range     [1e+00, 1e+02]
      RHS range        [1e+00, 1e+00]
    Presolve removed 220 rows and 231 columns
    Presolve time: 0.01s
    Presolved: 1421 rows, 812 columns, 3866 nonzeros
    Presolved model has 220 quadratic constraint(s)
    Variable types: 768 continuous, 44 integer (44 binary)
    
    Root relaxation: objective 0.000000e+00, 354 iterations, 0.00 seconds (0.00 work units)
    
        Nodes    |    Current Node    |     Objective Bounds      |     Work
     Expl Unexpl |  Obj  Depth IntInf | Incumbent    BestBd   Gap | It/Node Time
    
    H    0     0                       7.8969283    0.00000   100%     -    0s
    *    0     0               0       7.8969283    0.00000   100%     -    0s
         0     0    0.00000    0    8    7.89693    0.00000   100%     -    0s
         0     0    0.00000    0   18    7.89693    0.00000   100%     -    0s
         0     0    0.00000    0   18    7.89693    0.00000   100%     -    0s
         0     0    0.00000    0    2    7.89693    0.00000   100%     -    0s
         0     0    0.00000    0   10    7.89693    0.00000   100%     -    0s
         0     0    0.00000    0    6    7.89693    0.00000   100%     -    0s
         0     0    0.00000    0   18    7.89693    0.00000   100%     -    0s
         0     0    0.00000    0   12    7.89693    0.00000   100%     -    0s
         0     0    0.00000    0   14    7.89693    0.00000   100%     -    0s
         0     0    0.00000    0    4    7.89693    0.00000   100%     -    0s
         0     0    0.00000    0   14    7.89693    0.00000   100%     -    0s
         0     0    0.00000    0   12    7.89693    0.00000   100%     -    0s
         0     0    0.00000    0   14    7.89693    0.00000   100%     -    0s
         0     0    0.00000    0    8    7.89693    0.00000   100%     -    0s
         0     0    0.00000    0    8    7.89693    0.00000   100%     -    0s
         0     0    0.00000    0   15    7.89693    0.00000   100%     -    0s
         0     0    0.00000    0   11    7.89693    0.00000   100%     -    0s
         0     0    0.00000    0   14    7.89693    0.00000   100%     -    0s
         0     0    0.00000    0   14    7.89693    0.00000   100%     -    0s
         0     0    0.00000    0   12    7.89693    0.00000   100%     -    0s
         0     0    0.00000    0    4    7.89693    0.00000   100%     -    0s
         0     0    0.00000    0   12    7.89693    0.00000   100%     -    0s
         0     0    0.00000    0   12    7.89693    0.00000   100%     -    0s
         0     0    0.00000    0   16    7.89693    0.00000   100%     -    0s
         0     0    0.00000    0   12    7.89693    0.00000   100%     -    0s
         0     0    0.00000    0   14    7.89693    0.00000   100%     -    0s
         0     0    0.00000    0   12    7.89693    0.00000   100%     -    0s
         0     0    0.00000    0   12    7.89693    0.00000   100%     -    0s
         0     0    0.00000    0   12    7.89693    0.00000   100%     -    0s
         0     0    0.00000    0   10    7.89693    0.00000   100%     -    0s
         0     0    0.00000    0   10    7.89693    0.00000   100%     -    0s
         0     0    0.00000    0   14    7.89693    0.00000   100%     -    0s
         0     0    0.00000    0   12    7.89693    0.00000   100%     -    0s
         0     0    0.00000    0   14    7.89693    0.00000   100%     -    0s
         0     0    0.00000    0   14    7.89693    0.00000   100%     -    0s
         0     0    0.00000    0   17    7.89693    0.00000   100%     -    0s
         0     0    0.00000    0   16    7.89693    0.00000   100%     -    0s
         0     0    0.00000    0   19    7.89693    0.00000   100%     -    0s
         0     0    0.00000    0   18    7.89693    0.00000   100%     -    0s
         0     0    0.00000    0   18    7.89693    0.00000   100%     -    0s
         0     0    0.00000    0    8    7.89693    0.00000   100%     -    0s
         0     0    0.00000    0   14    7.89693    0.00000   100%     -    0s
         0     0    0.00000    0   12    7.89693    0.00000   100%     -    0s
         0     0    0.00000    0   12    7.89693    0.00000   100%     -    0s
         0     0    0.00000    0   12    7.89693    0.00000   100%     -    0s
         0     0    0.00000    0   16    7.89693    0.00000   100%     -    0s
         0     0    0.00000    0    8    7.89693    0.00000   100%     -    0s
         0     0    0.00000    0   16    7.89693    0.00000   100%     -    0s
         0     0    0.00000    0    8    7.89693    0.00000   100%     -    0s
         0     0    0.00000    0   10    7.89693    0.00000   100%     -    0s
         0     0    0.00000    0    4    7.89693    0.00000   100%     -    0s
         0     0    0.00000    0   18    7.89693    0.00000   100%     -    0s
         0     0    0.00000    0   14    7.89693    0.00000   100%     -    0s
         0     0    0.00000    0   14    7.89693    0.00000   100%     -    0s
         0     0    0.00000    0   12    7.89693    0.00000   100%     -    0s
         0     0    0.00000    0   14    7.89693    0.00000   100%     -    0s
         0     0    0.00000    0   13    7.89693    0.00000   100%     -    0s
         0     0    0.00000    0   17    7.89693    0.00000   100%     -    0s
         0     0    0.00000    0   14    7.89693    0.00000   100%     -    0s
         0     0    0.00000    0   16    7.89693    0.00000   100%     -    0s
         0     0    0.00000    0   11    7.89693    0.00000   100%     -    0s
         0     0    0.00000    0   14    7.89693    0.00000   100%     -    0s
         0     0    0.00000    0   14    7.89693    0.00000   100%     -    0s
         0     0    0.00000    0   12    7.89693    0.00000   100%     -    0s
         0     0    0.00000    0    8    7.89693    0.00000   100%     -    0s
         0     0    0.00000    0   14    7.89693    0.00000   100%     -    0s
         0     0    0.00000    0   12    7.89693    0.00000   100%     -    0s
         0     0    0.00000    0   16    7.89693    0.00000   100%     -    0s
         0     0    0.00000    0   12    7.89693    0.00000   100%     -    0s
         0     0    0.00000    0   14    7.89693    0.00000   100%     -    0s
         0     0    0.00000    0   14    7.89693    0.00000   100%     -    0s
         0     0    0.00000    0   14    7.89693    0.00000   100%     -    0s
         0     0    0.00000    0   10    7.89693    0.00000   100%     -    0s
         0     0    0.00000    0   18    7.89693    0.00000   100%     -    0s
         0     0    0.00000    0   12    7.89693    0.00000   100%     -    0s
         0     0    0.00000    0   14    7.89693    0.00000   100%     -    0s
         0     0    0.00000    0    2    7.89693    0.00000   100%     -    0s
         0     0    0.00000    0    9    7.89693    0.00000   100%     -    0s
         0     0    0.00000    0   12    7.89693    0.00000   100%     -    0s
         0     0    0.00000    0   11    7.89693    0.00000   100%     -    0s
         0     0    0.00000    0   14    7.89693    0.00000   100%     -    0s
         0     0    0.00000    0   12    7.89693    0.00000   100%     -    0s
         0     0    0.00000    0   14    7.89693    0.00000   100%     -    0s
         0     0    0.00000    0    6    7.89693    0.00000   100%     -    0s
         0     0    0.00000    0   14    7.89693    0.00000   100%     -    0s
         0     0    0.00000    0    6    7.89693    0.00000   100%     -    1s
         0     0    0.00000    0   14    7.89693    0.00000   100%     -    1s
         0     0    0.00000    0    8    7.89693    0.00000   100%     -    1s
         0     0    0.00000    0   12    7.89693    0.00000   100%     -    1s
         0     0    0.00000    0    4    7.89693    0.00000   100%     -    1s
         0     0    0.00000    0    9    7.89693    0.00000   100%     -    1s
         0     0    0.00000    0   15    7.89693    0.00000   100%     -    1s
         0     0    0.00000    0    8    7.89693    0.00000   100%     -    1s
         0     0    0.00000    0   11    7.89693    0.00000   100%     -    1s
         0     0    0.00000    0   11    7.89693    0.00000   100%     -    1s
         0     0    0.00000    0   15    7.89693    0.00000   100%     -    1s
         0     0    0.00000    0   14    7.89693    0.00000   100%     -    1s
         0     0    0.00000    0   14    7.89693    0.00000   100%     -    1s
         0     0    0.00000    0   12    7.89693    0.00000   100%     -    1s
         0     0    0.00000    0   16    7.89693    0.00000   100%     -    1s
         0     0    0.00000    0    2    7.89693    0.00000   100%     -    1s
         0     0    0.00000    0   12    7.89693    0.00000   100%     -    1s
         0     0    0.00000    0   12    7.89693    0.00000   100%     -    1s
         0     0    0.00000    0   20    7.89693    0.00000   100%     -    1s
         0     0    0.00000    0   11    7.89693    0.00000   100%     -    1s
         0     0    0.00000    0   18    7.89693    0.00000   100%     -    1s
         0     0    0.00000    0   14    7.89693    0.00000   100%     -    1s
         0     0    0.00000    0   12    7.89693    0.00000   100%     -    1s
         0     0    0.00000    0   12    7.89693    0.00000   100%     -    1s
         0     0    0.00000    0   12    7.89693    0.00000   100%     -    1s
         0     0    0.00000    0   12    7.89693    0.00000   100%     -    1s
         0     0    0.00000    0   12    7.89693    0.00000   100%     -    1s
         0     0    0.00000    0   12    7.89693    0.00000   100%     -    1s
         0     0    0.00000    0   12    7.89693    0.00000   100%     -    1s
         0     0    0.00000    0   10    7.89693    0.00000   100%     -    1s
         0     0    0.00000    0   20    7.89693    0.00000   100%     -    1s
         0     0    0.00000    0   12    7.89693    0.00000   100%     -    1s
         0     0    0.00000    0   16    7.89693    0.00000   100%     -    1s
         0     0    0.00000    0    9    7.89693    0.00000   100%     -    1s
         0     0    0.00000    0   12    7.89693    0.00000   100%     -    1s
         0     0    0.00000    0    8    7.89693    0.00000   100%     -    1s
         0     0    0.00000    0   16    7.89693    0.00000   100%     -    1s
         0     0    0.00000    0   16    7.89693    0.00000   100%     -    1s
         0     0    0.00000    0   18    7.89693    0.00000   100%     -    1s
         0     0    0.00000    0    8    7.89693    0.00000   100%     -    1s
         0     0    0.00000    0   16    7.89693    0.00000   100%     -    1s
         0     0    0.00000    0   12    7.89693    0.00000   100%     -    1s
         0     0    0.00000    0   15    7.89693    0.00000   100%     -    1s
         0     0    0.00000    0   12    7.89693    0.00000   100%     -    1s
         0     0    0.00000    0   10    7.89693    0.00000   100%     -    1s
         0     0    0.00000    0    8    7.89693    0.00000   100%     -    1s
         0     0    0.00000    0   12    7.89693    0.00000   100%     -    1s
         0     0    0.00000    0   12    7.89693    0.00000   100%     -    1s
         0     0    0.00000    0   12    7.89693    0.00000   100%     -    1s
         0     0    0.00000    0   12    7.89693    0.00000   100%     -    1s
         0     0    0.00000    0   13    7.89693    0.00000   100%     -    1s
         0     0    0.00000    0    8    7.89693    0.00000   100%     -    1s
         0     0    0.00000    0   17    7.89693    0.00000   100%     -    1s
         0     0    0.00000    0   10    7.89693    0.00000   100%     -    1s
         0     0    0.00000    0   13    7.89693    0.00000   100%     -    1s
         0     0    0.00000    0   12    7.89693    0.00000   100%     -    1s
         0     0    0.00000    0   16    7.89693    0.00000   100%     -    1s
         0     0    0.00000    0   10    7.89693    0.00000   100%     -    1s
         0     0    0.00000    0   17    7.89693    0.00000   100%     -    1s
         0     0    0.00000    0   10    7.89693    0.00000   100%     -    1s
         0     0    0.00000    0   14    7.89693    0.00000   100%     -    1s
         0     0    0.00000    0   12    7.89693    0.00000   100%     -    1s
         0     0    0.00000    0   12    7.89693    0.00000   100%     -    1s
         0     0    0.00000    0    8    7.89693    0.00000   100%     -    1s
         0     0    0.00000    0   18    7.89693    0.00000   100%     -    1s
         0     0    0.00000    0   10    7.89693    0.00000   100%     -    1s
         0     0    0.00000    0   13    7.89693    0.00000   100%     -    1s
         0     0    0.00000    0   13    7.89693    0.00000   100%     -    1s
         0     0    0.00000    0   15    7.89693    0.00000   100%     -    1s
         0     0    0.00000    0    8    7.89693    0.00000   100%     -    1s
         0     0    0.00000    0   19    7.89693    0.00000   100%     -    1s
         0     0    0.00000    0   10    7.89693    0.00000   100%     -    1s
         0     0    0.00000    0   19    7.89693    0.00000   100%     -    1s
         0     0    0.00000    0   16    7.89693    0.00000   100%     -    1s
         0     0    0.00000    0   16    7.89693    0.00000   100%     -    1s
         0     0    0.00000    0   14    7.89693    0.00000   100%     -    1s
         0     0    0.00000    0   14    7.89693    0.00000   100%     -    2s
         0     0    0.00000    0   12    7.89693    0.00000   100%     -    2s
         0     0    0.00000    0   18    7.89693    0.00000   100%     -    2s
         0     0    0.00000    0   14    7.89693    0.00000   100%     -    2s
         0     0    0.00000    0   16    7.89693    0.00000   100%     -    2s
         0     0    0.00000    0   10    7.89693    0.00000   100%     -    2s
         0     0    0.00000    0   11    7.89693    0.00000   100%     -    2s
         0     0    0.00000    0    4    7.89693    0.00000   100%     -    2s
         0     0    0.00000    0   15    7.89693    0.00000   100%     -    2s
         0     0    0.00000    0    8    7.89693    0.00000   100%     -    2s
         0     0    0.00000    0   12    7.89693    0.00000   100%     -    2s
         0     0    0.00000    0   12    7.89693    0.00000   100%     -    2s
         0     0    0.00000    0   12    7.89693    0.00000   100%     -    2s
         0     0    0.00000    0    8    7.89693    0.00000   100%     -    2s
         0     0    0.00000    0    8    7.89693    0.00000   100%     -    2s
         0     0    0.00000    0    8    7.89693    0.00000   100%     -    2s
         0     0    0.00000    0   14    7.89693    0.00000   100%     -    2s
         0     0    0.00000    0   12    7.89693    0.00000   100%     -    2s
         0     0    0.00000    0   19    7.89693    0.00000   100%     -    2s
         0     0    0.00000    0    8    7.89693    0.00000   100%     -    2s
         0     0    0.00000    0   13    7.89693    0.00000   100%     -    2s
         0     0    0.00000    0    8    7.89693    0.00000   100%     -    2s
         0     0    0.00000    0   10    7.89693    0.00000   100%     -    2s
         0     0    0.00000    0   10    7.89693    0.00000   100%     -    2s
         0     0    0.00000    0   14    7.89693    0.00000   100%     -    2s
         0     0    0.00000    0   14    7.89693    0.00000   100%     -    2s
         0     0    0.00000    0   10    7.89693    0.00000   100%     -    2s
         0     0    0.00000    0   10    7.89693    0.00000   100%     -    2s
         0     0    0.00000    0   14    7.89693    0.00000   100%     -    2s
         0     0    0.00000    0   10    7.89693    0.00000   100%     -    2s
         0     0    0.00000    0   12    7.89693    0.00000   100%     -    2s
         0     0    0.00000    0    2    7.89693    0.00000   100%     -    2s
         0     0    0.00000    0   18    7.89693    0.00000   100%     -    2s
         0     0    0.00000    0    8    7.89693    0.00000   100%     -    2s
    H    0     0                       7.4037527    0.00000   100%     -    2s
         0     2    0.00000    0   12    7.40375    0.00000   100%     -    2s
    H   83    76                       6.7916276    0.00000   100%   139    2s
    H  128    99                       6.7916265    0.00000   100%   114    3s
    H  233   177                       6.7916265    0.00000   100%   131    3s
    H  236   180                       6.7916264    0.00000   100%   134    3s
       314   232    3.74759    9   22    6.79163    0.00000   100%   144    5s
    H  350   242                       6.7009331    0.00000   100%   211    7s
    H  351   231                       6.5626435    0.00000   100%   212    7s
    H  353   220                       5.8359509    0.00000   100%   213    8s
    H  355   210                       5.7866472    0.00000   100%   215    8s
    H  398   210                       5.7866471    0.00000   100%   217    9s
    H  416   212                       5.5903434    0.00000   100%   222    9s
    H  417   203                       5.4376678    0.00000   100%   222    9s
    H  434   197                       5.3560792    0.00000   100%   223   10s
    H  435   189                       5.3558633    0.00000   100%   224   10s
    H  447   189                       5.3555575    0.00000   100%   230   10s
    H  448   181                       5.3555570    0.00000   100%   230   10s
    H  687   210                       4.8467139    0.00000   100%   232   13s
    H  688   203                       4.8467129    0.00000   100%   232   13s
    H  696   204                       4.8467125    0.00000   100%   232   13s
       887   340    3.73685   20   21    4.84671    0.03870  99.2%   238   15s
      1815   636    3.10207   21   18    4.84671    0.96935  80.0%   219   20s
      2969   884    3.89674   20   19    4.84671    1.53513  68.3%   192   25s
      4192  1092    4.64743   21   19    4.84671    1.92951  60.2%   177   30s
    H 4573  1112                       4.8467123    2.03491  58.0%   175   31s
      5547  1242    4.70915   22   18    4.84671    2.24997  53.6%   166   35s
      7147  1344    3.54175   20   17    4.84671    2.67235  44.9%   155   40s
      8789  1343    3.47995   22   18    4.84671    3.03639  37.4%   148   45s
     10619  1200    4.15250   21   17    4.84671    3.41063  29.6%   139   50s
    H12261   878                       4.8467123    3.81935  21.2%   132   54s
     12723   717     cutoff   26         4.84671    3.98686  17.7%   130   55s
    
    Cutting planes:
      Gomory: 3
      Flow cover: 7
    
    Explored 14208 nodes (1836173 simplex iterations) in 58.21 seconds (64.21 work units)
    Thread count was 1 (of 96 available processors)
    
    Solution count 9: 4.84671 5.35556 5.78665 ... 7.89693
    
    Optimal solution found (tolerance 1.00e-06)
    Best objective 4.846712259330e+00, best bound 4.846712259330e+00, gap 0.0000%
    
    User-callback calls 14329, time in user-callback 0.00 sec

... Solving fixed model...

    Gurobi Optimizer version 13.0.0 build v13.0.0rc1 (linux64 - "Oracle Linux Server 9.7")
    
    CPU model: AMD EPYC 7643 48-Core Processor, instruction set [SSE2|AVX|AVX2]
    Thread count: 48 physical cores, 96 logical processors, using up to 1 threads
    
    Non-default parameters:
    TimeLimit  300
    MIPGap  1e-06
    LogToConsole  0
    NonConvex  2
    Threads  1
    
    Optimize a model with 1169 rows, 559 columns and 2613 nonzeros (Min)
    Model fingerprint: 0xfb8dc9e3
    Model has 11 linear objective coefficients
    Model has 44 quadratic constraints
    Coefficient statistics:
      Matrix range     [1e+00, 1e+02]
      QMatrix range    [2e-02, 2e+00]
      Objective range  [1e+00, 1e+00]
      Bounds range     [1e+00, 1e+02]
      RHS range        [1e+00, 1e+00]
    Presolve removed 1166 rows and 528 columns
    Presolve time: 0.00s
    Presolved: 77 rows, 88 columns, 192 nonzeros
    Presolved model has 11 second-order cone constraints
    Ordering time: 0.00s
    
    Barrier statistics:
     AA' NZ     : 7.200e+02
     Factor NZ  : 9.030e+02
     Factor Ops : 1.434e+04 (less than 1 second per iteration)
     Threads    : 1
    
                      Objective                Residual
    Iter       Primal          Dual         Primal    Dual     Compl     Time
       0   5.78335677e+02 -4.34513620e+02  1.09e+01 4.04e+00  1.33e+01     0s
       1   5.48769408e+01 -1.07658144e+02  1.20e-05 4.45e-06  1.18e+00     0s
       2   7.85767120e+00 -4.30218922e+01  1.53e-07 1.89e-06  3.69e-01     0s
       3   6.13676429e+00 -2.54703035e+00  3.67e-10 2.18e-07  6.29e-02     0s
       4   5.00620804e+00  4.14040817e+00  2.00e-15 1.95e-08  6.27e-03     0s
       5   4.84999609e+00  4.82333952e+00  1.82e-14 6.04e-10  1.93e-04     0s
       6   4.84681555e+00  4.84609279e+00  8.97e-13 1.63e-11  5.24e-06     0s
       7   4.84671386e+00  4.84670978e+00  4.91e-11 2.36e-13  2.95e-08     0s
    
    Barrier solved model in 7 iterations and 0.00 seconds (0.00 work units)
    Optimal objective 4.84671386e+00
    
    
    User-callback calls 0, time in user-callback 0.00 sec
    Warning: to get QCP duals, please set parameter QCPDual to 1

--- Reading solution for model GAMS_MODEL
***
*** Solver did not provide marginals for model GAMS_MODEL
***
--- Executing after solve: elapsed 0:00:58.269
--- model.gms(4007) 4 Mb
--- model.gms(5831) 6 Mb
--- Putfile results /local/scratch/a/sgusev/repos/k_means/data/gams_gurobi_gdp.hull_exact/no_mode/2026-02-14_20-03-31/original/results.dat
--- Putfile statresults /local/scratch/a/sgusev/repos/k_means/data/gams_gurobi_gdp.hull_exact/no_mode/2026-02-14_20-03-31/original/resultsstat.dat
*** Status: Normal completion
--- Job model.gms Stop 02/14/26 20:04:30 elapsed 0:00:58.272
Original problem solved. Time taken: 58.860713481903076 seconds
Original objective value: 4.84671385516668
